(set-logic QF_LIA)
(set-info :ran/ran2.smt2)
(set-info :smt-lib-version 2.0)
(declare-fun x0 () Int)
(declare-fun x1 () Int)
(define-fun ie0 () Bool (<= (+ (* (- 52) x0) (* 6 x1) (* 94 x1) (* (- 52) x0) ) (- 74)))
(define-fun ie1 () Bool (<= (+ (* (- 81) x0) (* 35 x1) (* (- 44) x1) (* (- 34) x0) ) (- 55)))
(assert ie0)
(assert ie1)
(check-sat)
(exit)
